!File created by the GAMESS Input Deck Generator Plugin for Avogadro
 $BASIS GBASIS=STO NGAUSS=3 $END
 $CONTRL SCFTYP=RHF RUNTYP=SADPOINT NZVAR=1 mult=1  ICHARG=0 $END
 $STATPT hssend=.t. OPTTOL=0.0005 NSTEP=50 $END
 $STATPT HESS=calc ihrep=5 $END
 $FORCE nvib=2 $END
 $ZMAT DLC=.t. auto=.t. nonvdw(1)=3,17,17,20,2,20,2,3 $END
!$ZMAT IFZMAT(1)=1,3,17,1,17,20,1,2,20 fvalue(1)=2.08,1.98,2.01 $END

 $DATA 
Title
C1
C     6.0     1.01478028    -0.07575989    -0.00664435
C     6.0     2.53224230    -0.06815590     0.23046687
C     6.0     3.34280515    -1.15653539    -0.16870545
C     6.0     4.73845673    -0.69426841    -0.58223444
C     6.0     4.80831051     0.76912707    -0.07553454
C     6.0     3.33428884     1.23331153    -0.00497090
H     1.0     0.57433861    -1.00022876     0.35376713
H     1.0     0.83095551    -0.00166027    -1.07737768
H     1.0     0.53345823     0.76083136     0.48898903
H     1.0     2.91625381    -2.08139181    -0.52871192
H     1.0     4.82420206    -0.72690624    -1.66915739
H     1.0     5.53748465    -1.30914736    -0.17289123
H     1.0     5.39987373     1.40325904    -0.73017323
H     1.0     5.25309420     0.80056107     0.91525102
H     1.0     3.01755595     1.62919652    -0.97049242
H     1.0     3.16008973     1.99680758     0.74712092
B     5.0     3.14498186    -1.21825254     1.90094590
H     1.0     4.19167137    -1.00445843     2.33201241
H     1.0     2.39610386    -2.06459689     2.12796283
H     1.0     2.14575458     0.47618920     2.12636137
 $END
