!   File created by the GAMESS Input Deck Generator Plugin for Avogadro
 $BASIS GBASIS=STO NGAUSS=3 $END
 $CONTRL SCFTYP=RHF RUNTYP=ENERGY $END

 $DATA 
Title
C1
C     6.0     0.98286     0.03710    -0.06738
C     6.0     2.48823     0.04663    -0.03822
C     6.0     3.25788    -1.07590     0.01163
C     6.0     4.65952    -0.68270    -0.42730
C     6.0     4.72585     0.77445     0.00476
C     6.0     3.31355     1.28397    -0.25755
H     1.0     0.58763    -0.99418     0.05083
H     1.0     0.63087     0.44563    -1.03730
H     1.0     0.58227     0.66877     0.75247
H     1.0     2.78198    -2.06465    -0.14811
H     1.0     4.69258    -0.74484    -1.53769
H     1.0     5.48006    -1.29758    -0.00007
H     1.0     5.54208     1.38081    -0.44147
H     1.0     4.87317     0.77227     1.10879
H     1.0     3.17297     1.58987    -1.31682
H     1.0     3.07252     2.12971     0.42136
B     5.0     3.46771    -1.55109     2.02507
H     1.0     4.57533    -1.55458     2.44231
H     1.0     2.80846    -2.49223     2.31103
H     1.0     2.53946     0.20036     1.96316
 $END
