!File created by the GAMESS Input Deck Generator Plugin for Avogadro
 $BASIS GBASIS=STO NGAUSS=3 $END
 $CONTRL SCFTYP=RHF RUNTYP=IRC NZVAR=1 mult=1  ICHARG=0 $END
 $STATPT hssend=.t. OPTTOL=0.0005 NSTEP=50 $END
 $STATPT HESS=calc ihrep=5 $END
 $FORCE nvib=2 $END
 $ZMAT DLC=.t. auto=.t. nonvdw(1)=4,10,7,8,4,3,3,7,8,9,9,10 $END
!$ZMAT IFZMAT(1)=1,4,10,1,7,8 fvalue(1)=2.00,2.00 $END
 $irc npoint=50 saddle=.t. tsengy=.t. forwrd=.t. opttol=0.0005 stride=0.2 $end
 $DATA 
Title
C1
C     6.0     0.90799892     0.92424887     0.39297861
C     6.0     1.38511527    -0.24338725     0.01537075
C     6.0    -1.34842420     0.34934235    -0.38802248
C     6.0    -0.57723820     1.21185660     0.41440514
C     6.0     0.45906082    -1.36468160    -0.39943796
O     8.0     0.85787338    -2.45531487    -0.78257829
C     6.0    -1.03785598    -1.01828885    -0.29508957
C     6.0    -1.34683597    -1.52591980     1.54010093
C     6.0    -1.80875123    -0.38341326     2.21478677
C     6.0    -0.99455434     0.76268345     2.24325204
H     1.0     1.56704354     1.72791040     0.70315182
H     1.0     2.44710398    -0.44552559    -0.03130915
H     1.0    -2.35439372     0.64419490    -0.66051263
H     1.0    -0.81715685     2.27076745     0.38121381
H     1.0    -1.66435134    -1.71013212    -0.85155272
H     1.0    -0.33742237    -1.84991753     1.76664519
H     1.0    -2.03124738    -2.36296415     1.44907224
H     1.0    -2.88099146    -0.22606085     2.23684144
H     1.0     0.03208083     0.62798810     2.56321168
H     1.0    -1.43260217     1.66757762     2.65251470
 $END

 $HESS
ENERGY IS     -416.0940640241 E(NUC) IS      511.5087460187
 1  1 8.01289878E-01-5.99835756E-02 8.47834109E-03-2.46745395E-01 1.76258573E-01
 1  2 5.88232222E-02-3.74429667E-02-7.04870180E-03 2.70439635E-04-3.01428784E-01
 1  3 4.54921128E-02-2.78935348E-02 3.83392361E-02-7.05253938E-03-2.38475166E-04
 1  4-7.51126432E-03-1.31549366E-02-4.01204451E-03-4.65230574E-04 3.01556998E-03
 1  5-4.61414872E-03 4.20888295E-03-9.45646857E-04-3.44570854E-03 9.67406250E-04
 1  6 1.05895522E-02 6.28649552E-04-1.55752485E-02-9.63874091E-03 2.82022828E-02
 1  7-2.23807624E-01-1.74396327E-01-6.72250192E-02-4.04374171E-03 4.01874865E-02
 1  8 1.08313155E-02-3.47737497E-04-3.19382125E-04-9.60928098E-04-5.73746114E-03
 1  9-5.48170387E-03 4.64642146E-03-1.04019682E-03 1.06093765E-03 2.97953328E-04
 1 10 1.64766664E-04-4.74200470E-04-1.83884171E-04-3.61075185E-04 6.56186538E-05
 1 11-1.10325405E-03 1.97121527E-04 2.01220977E-04-4.20329781E-04-4.84710570E-04
 1 12 7.52185121E-04-1.32962144E-03-1.75855619E-04 8.72497822E-04-7.51677249E-04
 2  1-5.99835756E-02 1.08697558E+00 3.06011691E-01 2.10633527E-01-6.32002059E-01
 2  2-1.85807348E-01-1.89073023E-02 2.29208966E-02 3.77137759E-03 1.41568564E-02
 2  3-1.44753188E-01-9.37949669E-03 3.27021623E-03-4.81282860E-02-1.99682292E-02
 2  4-6.40214250E-03 7.15308544E-03 1.88494998E-03 3.26405644E-03-3.58207163E-03
 2  5 9.49854737E-03-5.23511007E-04 2.48756621E-04-3.79831892E-03 2.61854973E-04
 2  6 5.36016087E-04 8.34423341E-04-1.72851527E-03 2.14840461E-03-4.06659624E-03
 2  7-1.80322985E-01-2.91128203E-01-9.15275309E-02-6.41975057E-03-1.09208600E-03
 2  8-1.01472536E-03-6.21712580E-04-2.26532542E-03-6.62540933E-03 4.15778820E-02
 2  9 1.38690931E-03-1.18280322E-03 1.33880072E-03 4.93881516E-04-9.36917329E-04
 2 10 2.33107866E-05-1.85607073E-04 2.92853913E-04 1.52550545E-04-3.66852889E-05
 2 11 6.34237869E-04 1.96872970E-04-2.85416516E-05 1.26002663E-04 1.07710999E-04
 2 12 1.57944824E-03 7.37781278E-04-7.41440947E-05-2.40928744E-04 5.15510078E-04
 3  1 8.47834109E-03 3.06011691E-01 3.12051330E-01 6.67359224E-02-1.83388224E-01
 3  2-1.33903494E-01-3.29974903E-02-1.03578009E-02-6.82971954E-03 5.07427484E-03
 3  3-6.33014763E-03-5.46647233E-02 1.38537763E-03-2.27591907E-02 6.96771648E-04
 3  4-2.58237950E-03 3.14284605E-03 1.38490584E-03 3.06374855E-03 8.78780492E-03
 3  5-1.25823069E-02-4.40993653E-03 5.17114914E-03 1.02110720E-02-3.14006218E-03
 3  6-1.14617872E-02-1.54303870E-03 2.67290066E-02 8.36099512E-03-2.68145980E-02
 3  7-6.83110867E-02-9.02190709E-02-9.18656884E-02-2.03743966E-03-2.37616964E-03
 3  8 7.45837852E-03-4.99001584E-03-5.35143379E-03 2.71870659E-03-8.01521982E-04
 3  9 1.34129926E-04-9.43404515E-04 3.10969868E-04 1.62343142E-04-2.29457261E-04
 3 10 1.12710544E-03 7.65565989E-04-1.57818911E-03-2.10812635E-04-2.32635194E-05
 3 11-8.98592073E-04 4.16769973E-04-3.01343964E-04 8.17838301E-04 5.96280660E-03
 3 12-8.33818574E-05-2.54565586E-03 1.96422243E-04 1.15288981E-04-9.40135625E-04
 4  1-2.46745395E-01 2.10633527E-01 6.67359224E-02 9.37614117E-01-2.02638372E-01
 4  2-4.77113093E-02 2.66868433E-03-7.80654226E-04 2.23181543E-03-1.93417607E-02
 4  3 4.21874954E-02 1.14484246E-02-2.23959313E-01-7.46061042E-02-2.82880947E-02
 4  4 2.85959937E-02 6.95567116E-03 2.95760267E-03-2.38058549E-02-2.60563620E-02
 4  5-1.58137918E-02 8.30973783E-04 4.14824430E-04 2.88861785E-04 1.51326997E-04
 4  6-1.30706759E-03 4.38921908E-04 5.98447906E-04 2.02923272E-03-2.63860329E-03
 4  7 1.61588031E-02-2.56794366E-02-8.19529381E-03-4.61075958E-01 6.75759226E-02
 4  8 1.53135823E-02 6.60698070E-04-4.35403541E-04 1.30872422E-03-6.50024925E-03
 4  9-3.55574549E-04-6.98453546E-04-5.28014865E-03 2.62125626E-03 1.68223308E-03
 4 10-4.80031370E-04-2.48506244E-04 6.17579955E-04 2.06904787E-04 1.16763828E-04
 4 11-2.23237609E-04 6.45701005E-05-3.17472467E-05 1.56312881E-06-3.61049674E-04
 4 12-1.27712091E-04 2.90062227E-04-7.60065978E-07-2.67753564E-04 2.53490302E-04
 5  1 1.76258573E-01-6.32002059E-01-1.83388224E-01-2.02638372E-01 9.64672201E-01
 5  2 2.73852749E-01-5.79058716E-03-3.84297897E-03-2.78075599E-04 2.72798371E-02
 5  3 2.42258738E-03-1.32668718E-02-7.05273685E-02-1.71788607E-01-2.86564020E-02
 5  4-2.13232681E-02-6.88813824E-02-3.25963121E-02 3.49113830E-03 1.12294946E-02
 5  5-4.07733993E-03 2.55674054E-03-1.71451481E-03-2.63589883E-03 5.46210248E-04
 5  6 5.13320060E-03 6.57623950E-04-3.34158478E-03-5.22695029E-03 1.03996911E-02
 5  7 2.12648646E-02-1.43188467E-02-7.78037879E-03 7.28808588E-02-8.61348644E-02
 5  8-1.35593699E-02-3.96740357E-04 2.90437978E-04 8.91778610E-04-1.61620468E-03
 5  9 3.51319246E-04 1.45815352E-03 2.44458156E-03-6.33769062E-04-8.65168224E-05
 5 10-6.56671615E-04-2.51029510E-04-1.25545626E-04-3.24496394E-04 1.44465278E-04
 5 11-3.37971317E-04-6.20003386E-06 2.40765807E-04-1.25451730E-04-2.44209324E-04
 5 12-2.42457885E-04 3.38745632E-04 1.42899067E-04 5.52988164E-04-6.84383579E-04
 6  1 5.88232222E-02-1.85807348E-01-1.33903494E-01-4.77113093E-02 2.73852749E-01
 6  2 2.46815897E-01-1.26815770E-03-1.95702054E-03 7.53676694E-04 2.15319073E-03
 6  3-1.74808699E-03 4.42851522E-03-3.14530400E-02-2.54176805E-02-1.02306667E-01
 6  4-5.89644631E-03-3.43712303E-02 1.09924256E-02 2.74176759E-03 5.77819804E-04
 6  5 1.15661839E-02-3.30157564E-03 5.80643057E-04 3.61257647E-03 8.96895539E-06
 6  6-2.41804944E-03-5.43401720E-04 1.36974112E-03 7.80481782E-04-1.35259173E-03
 6  7 6.95933483E-03-1.09587198E-02 1.07399213E-02 1.55852247E-02-1.19074372E-02
 6  8-5.40860572E-02 2.95284471E-04-3.13919702E-04 4.14199727E-05-8.77720534E-04
 6  9 4.73367352E-04 1.21610883E-03 1.09137313E-03-1.34515517E-03 1.55456476E-03
 6 10 3.09069166E-05 1.28089088E-04-5.44182952E-04 1.20780373E-04-8.50783981E-05
 6 11 3.94345316E-04 1.66246217E-05 1.57132525E-04 4.19852489E-05 8.72035059E-04
 6 12-2.76684282E-04 6.10466995E-04 4.39794756E-04 5.61273160E-05-3.16925682E-05
 7  1-3.74429667E-02-1.89073023E-02-3.29974903E-02 2.66868433E-03-5.79058716E-03
 7  2-1.26815770E-03 8.48340956E-01-9.18507757E-02 2.42697396E-01-2.50114369E-01
 7  3-1.20436674E-01-1.03029896E-01-3.34945248E-03 4.41580572E-02-3.79926046E-03
 7  4-9.10761442E-03 5.44805975E-04 1.93029032E-03-1.68267453E-01 1.19952157E-01
 7  5-4.40245005E-02-5.60407729E-03 8.95580911E-04 2.52327770E-02 1.29035873E-03
 7  6-3.23753667E-02 1.45935687E-02 1.85903046E-02 2.19853966E-02-2.65601688E-02
 7  7-4.97877724E-03 2.16398613E-03 3.18806005E-04 1.01485752E-03-3.54113836E-04
 7  8 2.53046766E-05-4.14101306E-01 9.74561210E-02-8.88430780E-02 1.11227555E-02
 7  9 9.49867445E-03 5.00328385E-03 1.05393165E-02-2.62809050E-02 6.19336742E-03
 7 10 1.57508803E-04 5.25092219E-04-1.17233060E-03 2.76015774E-04 3.54065286E-04
 7 11 1.71842372E-05 3.77539032E-04 4.82301728E-04-1.68806172E-03-1.66894720E-03
 7 12-8.85813713E-04 5.18534404E-03 2.56665880E-04-1.13470005E-03 2.18562198E-03
 8  1-7.04870180E-03 2.29208966E-02-1.03578009E-02-7.80654226E-04-3.84297897E-03
 8  2-1.95702054E-03-9.18507757E-02 7.70228589E-01 7.31336167E-02-8.49594328E-02
 8  3-2.53510672E-01 1.43123069E-02 2.31439300E-02-1.43414396E-02 2.42669749E-02
 8  4-7.21866470E-03 6.26487227E-03-9.80859121E-04 7.58314708E-02-3.66343009E-01
 8  5-1.21981472E-01-4.96056946E-02 2.25682027E-02 1.81886390E-01-1.95875583E-02
 8  6-1.34742598E-01-3.36899717E-02 6.84401781E-02 8.63050876E-02-1.18201618E-01
 8  7 4.35286127E-03-1.36718472E-03-3.39240328E-04-1.25664988E-03-1.29831514E-03
 8  8 1.50529030E-04 1.03123181E-01-1.06910934E-01 1.65966089E-02-2.05524762E-02
 8  9-1.15525215E-02-3.96043529E-02 6.63528871E-03-1.81479534E-02 1.94702040E-02
 8 10 3.79698964E-03 5.72075924E-03-1.56177772E-02-5.17926851E-04 1.87565620E-03
 8 11-8.41452370E-03 1.18631963E-03 2.14064403E-04-1.70445272E-04-3.31006456E-03
 8 12-2.44789002E-03 1.59246009E-02 1.78380501E-04-1.59263248E-03 5.57384944E-03
 9  1 2.70439635E-04 3.77137759E-03-6.82971954E-03 2.23181543E-03-2.78075599E-04
 9  2 7.53676694E-04 2.42697396E-01 7.31336167E-02 3.83569771E-01-1.28079043E-01
 9  3-1.28815693E-01-1.14916087E-01 8.56140921E-03-2.41109057E-03 3.86528490E-03
 9  4-1.29984710E-03 1.42428459E-03 5.67833804E-04-3.49329211E-02 2.35737532E-02
 9  5-9.71603736E-02-8.84523936E-03 1.27984782E-02 1.27673953E-02-1.19898475E-02
 9  6-3.07241805E-02-4.89708986E-02 3.20306023E-02 4.68134918E-02-7.91066073E-02
 9  7 1.88204746E-03-1.03327916E-03 8.72927607E-04 3.91127683E-05-5.09327207E-04
 9  8 2.80127761E-04-1.08848175E-01 2.01267657E-02-7.42889048E-02 5.78451707E-03
 9  9 9.32281113E-03 1.33021368E-04 6.49000320E-03-2.59795788E-02 8.35897690E-03
 9 10 3.46000383E-04 1.95837191E-03-2.67674627E-03-2.73536518E-04 1.01018188E-03
 9 11-1.10313821E-03-3.56758751E-03-5.35707649E-04 3.79307592E-03-2.18346518E-03
 9 12-1.82893343E-03 7.07232972E-03-3.13680628E-04-1.81726723E-03 3.01805460E-03
10  1-3.01428784E-01 1.41568564E-02 5.07427484E-03-1.93417607E-02 2.72798371E-02
10  2 2.15319073E-03-2.50114369E-01-8.49594328E-02-1.28079043E-01 7.08871045E-01
10  3-6.13723368E-03 1.43905712E-01 2.82559369E-03-5.21569684E-03-1.08478821E-04
10  4-1.92359201E-03 1.21612832E-03-3.68356981E-04 1.48382512E-02-2.07716424E-02
10  5 3.04308301E-02 4.39242226E-03-2.70717797E-03-2.10028348E-02 2.97703893E-04
10  6-1.00381551E-04 6.54833050E-03-4.25141773E-02 2.99139604E-03 2.36167234E-03
10  7-1.41408401E-02 1.28119843E-02 2.70079984E-03 1.84422381E-04-9.69925938E-04
10  8-4.56898448E-04-7.63248210E-03-2.83607174E-02-2.46229126E-02-9.59087691E-02
10  9 8.57449976E-02-1.03979320E-02 6.60516886E-04 3.97889367E-03-5.50885911E-03
10 10-8.07452184E-04 4.56217246E-05 2.33820994E-03-1.10359926E-04 5.07467188E-04
10 11 1.78325492E-03-1.27374070E-03 4.91417525E-04 3.39637657E-04 3.67278080E-03
10 12 2.90835914E-03-1.45324294E-02-5.46408802E-04-2.91075046E-03 7.44183204E-03
11  1 4.54921128E-02-1.44753188E-01-6.33014763E-03 4.21874954E-02 2.42258738E-03
11  2-1.74808699E-03-1.20436674E-01-2.53510672E-01-1.28815693E-01-6.13723368E-03
11  3 9.45365585E-01 1.15314543E-01-2.22677870E-03-3.28118458E-04 2.49128669E-03
11  4 6.90811448E-04 1.21955014E-03 3.28815497E-04-2.90869324E-02-5.82977287E-02
11  5-2.79509755E-03 5.35104842E-03-1.23719274E-02-2.93553848E-02 3.96564628E-03
11  6 1.14205079E-02 1.01036172E-02-7.98589291E-03-5.81039831E-02 2.38197847E-02
11  7-2.82189228E-02 1.05312477E-02 1.86519787E-03 1.13312352E-03-3.13971408E-03
11  8-7.94372085E-03 1.22982265E-02 1.05342519E-02 6.84079370E-03 8.20112473E-02
11  9-4.48869566E-01 2.03974328E-02 4.54893330E-03-6.66708681E-03-1.42835510E-03
11 10-2.05192528E-03-5.33949850E-04 4.01847334E-03 6.64442816E-04 8.88661343E-04
11 11 3.00271186E-03-1.82197610E-03 1.94689864E-04 9.22970824E-04-9.80194812E-04
11 12 2.31163928E-04 2.28486870E-03 6.03443049E-04 3.76768878E-03-1.29740112E-02
12  1-2.78935348E-02-9.37949669E-03-5.46647233E-02 1.14484246E-02-1.32668718E-02
12  2 4.42851522E-03-1.03029896E-01 1.43123069E-02-1.14916087E-01 1.43905712E-01
12  3 1.15314543E-01 1.36849820E-01-4.42719552E-03 1.15006119E-02-2.46716385E-02
12  4 3.54305181E-03-4.75555258E-03 3.16058445E-03 9.73346318E-03-1.20029950E-01
12  5 1.09468759E-01 5.22309197E-02-4.50940194E-02-1.53202613E-01 4.80559104E-02
12  6 1.89995281E-01 1.97547518E-02-1.12806311E-01-1.43219203E-01 1.39530600E-01
12  7-1.17907852E-02 3.44845001E-03 4.73092483E-03 1.92602455E-04-4.08127274E-03
12  8 9.39923738E-03 1.44535964E-03-6.12364430E-03 4.26727432E-05-1.48007410E-02
12  9 2.22617715E-04-4.08762645E-02 4.04330881E-04 3.00792707E-03-8.14322046E-04
12 10-4.65766220E-03-5.87106382E-03 1.46048362E-02 8.87730688E-04-1.97666156E-03
12 11 7.02687639E-03-1.69041428E-03-2.46587023E-04-1.64467465E-03 9.15844461E-03
12 12 7.82249880E-03-4.06493428E-02 9.05897009E-05 8.42008621E-03-1.75579111E-02
13  1 3.83392361E-02 3.27021623E-03 1.38537763E-03-2.23959313E-01-7.05273685E-02
13  2-3.14530400E-02-3.34945248E-03 2.31439300E-02 8.56140921E-03 2.82559369E-03
13  3-2.22677870E-03-4.42719552E-03 6.95389128E-01-1.92040414E-01-6.11116702E-02
13  4-2.00501904E-01 2.54680933E-01 8.76369224E-02-2.60141274E-01 1.43677374E-02
13  5-1.49612714E-02-9.90782468E-03-3.87986630E-03 2.37566717E-02-8.77902322E-04
13  6-3.59263092E-03-3.60085372E-03-1.87486686E-03 3.04086363E-05-1.04766535E-03
13  7-5.88455278E-03 2.73834128E-03 9.11723373E-04-1.11859349E-02-3.06443378E-02
13  8-8.61867072E-03-5.80859652E-04-4.62932353E-03 7.24136645E-04-2.54097081E-03
13  9-4.48156336E-04-6.19349951E-05-1.53889862E-02 8.46699208E-03 6.78565040E-03
13 10 2.24275247E-04 9.46474395E-04-1.26983494E-03-2.60442476E-04-8.74016560E-05
13 11-8.40755728E-04-3.08444247E-04-2.14425014E-04 1.01057241E-04 7.02055623E-04
13 12 3.03404590E-04-2.14325340E-03-7.17559741E-04 3.42265124E-04-3.26802748E-04
14  1-7.05253938E-03-4.81282860E-02-2.27591907E-02-7.46061042E-02-1.71788607E-01
14  2-2.54176805E-02 4.41580572E-02-1.43414396E-02-2.41109057E-03-5.21569684E-03
14  3-3.28118458E-04 1.15006119E-02-1.92040414E-01 1.12142265E+00 3.09557845E-01
14  4 2.50823256E-01-7.92351809E-01-2.54865042E-01-1.63260895E-03-1.13283560E-01
14  5-8.13033540E-03 1.20946859E-03 1.65553815E-03-4.74054091E-03 9.95496349E-04
14  6 1.00865176E-04 3.72926582E-04 5.64253000E-04 1.67366003E-03-3.28484784E-03
14  7 9.91067447E-04-1.74917927E-04-6.05784887E-03 9.03738461E-03 9.42853201E-03
14  8 2.57838997E-03 8.82202162E-04-5.89590230E-03-3.16187900E-03-1.24274678E-03
14  9 5.16418039E-04 4.45357932E-04-2.55018151E-02 1.09525633E-02 1.48115608E-03
14 10-9.25949654E-04 1.36635158E-03 4.28317377E-03 5.09653017E-04-9.02868195E-05
14 11 6.29316695E-04-1.96471312E-04-3.27149705E-04-4.39502286E-04-5.32574598E-04
14 12 5.96373079E-06-1.33723204E-04-2.23917511E-04-4.12464447E-04 5.52903554E-04
15  1-2.38475166E-04-1.99682292E-02 6.96771648E-04-2.82880947E-02-2.86564020E-02
15  2-1.02306667E-01-3.79926046E-03 2.42669749E-02 3.86528490E-03-1.08478821E-04
15  3 2.49128669E-03-2.46716385E-02-6.11116702E-02 3.09557845E-01 3.47499891E-01
15  4 8.84797826E-02-2.55415520E-01-1.57413647E-01 2.51023006E-03-3.85969503E-02
15  5-6.96946235E-02 2.56962831E-02-3.22418084E-03-3.32228646E-02 1.74072190E-04
15  6 1.25364918E-02 5.27243394E-03-6.72666559E-03-9.09596237E-03 6.47133811E-03
15  7-9.24057396E-04-5.75759360E-03 1.52905029E-02 3.24903678E-03 2.18733194E-03
15  8 4.29259935E-03-3.38509683E-03 5.78809051E-04 6.63876154E-03-1.25825566E-03
15  9 1.83470967E-04 5.52736837E-04-2.00475037E-02 8.34209123E-03 2.19354157E-03
15 10 5.09591004E-03-4.13750114E-04-2.77511576E-03-2.46617853E-04 3.88924915E-04
15 11-3.23341017E-04 2.61009005E-04-2.23608112E-04 5.73403166E-04 8.90386173E-04
15 12 2.37324251E-04-2.20718919E-03-2.22533623E-04 5.81646537E-04-7.32178238E-04
16  1-7.51126432E-03-6.40214250E-03-2.58237950E-03 2.85959937E-02-2.13232681E-02
16  2-5.89644631E-03-9.10761442E-03-7.21866470E-03-1.29984710E-03-1.92359201E-03
16  3 6.90811448E-04 3.54305181E-03-2.00501904E-01 2.50823256E-01 8.84797826E-02
16  4 1.99131409E-01-2.83486687E-01-9.99855498E-02-1.99237512E-02 6.05262878E-02
16  5 2.00624518E-02-9.31149133E-04 3.21891955E-03-1.28948531E-03-1.56358705E-04
16  6-1.76131044E-03 6.62287499E-04 1.43145509E-03 1.20163520E-03-1.79696508E-03
16  7 1.79061355E-03-6.36392385E-04-3.27630108E-04 1.72747269E-03 3.28808560E-03
16  8 7.63124890E-04 4.19622783E-04 3.05854423E-03-7.11748279E-04 1.05542172E-03
16  9 8.47555068E-05-4.55728021E-04 5.52306562E-03-1.76540672E-03 7.22518291E-05
16 10-1.32346423E-04-1.43222131E-04-5.49346502E-05 2.12605399E-04-4.94036413E-05
16 11-6.00461030E-05 2.67704481E-04 5.82694404E-05-1.55930950E-04-2.07162641E-04
16 12-4.79907899E-05 8.59518457E-04 2.39778923E-04-1.16075946E-04 1.74222281E-04
17  1-1.31549366E-02 7.15308544E-03 3.14284605E-03 6.95567116E-03-6.88813824E-02
17  2-3.43712303E-02 5.44805975E-04 6.26487227E-03 1.42428459E-03 1.21612832E-03
17  3 1.21955014E-03-4.75555258E-03 2.54680933E-01-7.92351809E-01-2.55415520E-01
17  4-2.83486687E-01 8.67319239E-01 2.96968440E-01 3.33165930E-02-1.91938959E-02
17  5-1.81331118E-02-1.43368816E-03-1.53073504E-03 5.60379133E-03-2.64756762E-04
17  6 5.89528430E-04-7.97318629E-04-2.46619303E-04-8.67294400E-04 2.73084183E-03
17  7 1.44155972E-03-2.01819688E-03 6.99613993E-04 2.15955350E-03 3.00158063E-03
17  8 1.55715139E-03-2.24883567E-04-7.13034373E-04 1.31153343E-03 1.93488847E-04
17  9-1.83592344E-05 2.99939452E-04-1.43949839E-03-1.50151153E-04 1.36501562E-03
17 10-1.41140422E-04-1.59561057E-04-9.32713498E-04-1.00590997E-04-1.02076263E-05
17 11-5.40391802E-04-1.28821460E-04 1.90278598E-04 1.83861287E-04 9.19340240E-05
17 12-4.76017794E-05-5.33778218E-05 2.09556017E-05 2.04094793E-04-2.88101721E-04
18  1-4.01204451E-03 1.88494998E-03 1.38490584E-03 2.95760267E-03-3.25963121E-02
18  2 1.09924256E-02 1.93029032E-03-9.80859121E-04 5.67833804E-04-3.68356981E-04
18  3 3.28815497E-04 3.16058445E-03 8.76369224E-02-2.54865042E-01-1.57413647E-01
18  4-9.99855498E-02 2.96968440E-01 1.31656985E-01 1.00402221E-02-1.08079388E-02
18  5 1.11166426E-02-2.65464434E-03-2.86871196E-04 4.25154786E-03 2.93421656E-04
18  6-2.00017021E-03-1.10380578E-03 1.04989262E-03 1.71278000E-03-9.85090527E-04
18  7 7.83350787E-04 6.66853920E-05-2.32872841E-03 8.27963631E-04 1.63502467E-03
18  8-6.99497752E-04 2.43273562E-04-7.35085347E-04-3.63750054E-04 2.01817030E-04
18  9-8.10762233E-06-1.39891071E-04 9.94923730E-04-3.58044789E-04-3.19320118E-04
18 10 2.23510704E-04 2.93836900E-04-1.86509487E-04 3.58645887E-05-2.89673785E-05
18 11 4.38840676E-05-1.21376090E-04-2.32758276E-05-4.65231852E-05-9.66120865E-05
18 12-7.72534894E-05 2.65018420E-04 1.95279721E-05-1.22604308E-04 1.46935487E-04
19  1-4.65230574E-04 3.26405644E-03 3.06374855E-03-2.38058549E-02 3.49113830E-03
19  2 2.74176759E-03-1.68267453E-01 7.58314708E-02-3.49329211E-02 1.48382512E-02
19  3-2.90869324E-02 9.73346318E-03-2.60141274E-01-1.63260895E-03 2.51023006E-03
19  4-1.99237512E-02 3.33165930E-02 1.00402221E-02 6.99928562E-01 1.23283081E-02
19  5 1.58207239E-01-3.98226260E-02-5.90256227E-03-2.13323590E-02 5.53154463E-04
19  6 9.97264243E-03 1.09368228E-02-6.14054102E-05-1.96026943E-03-1.95995129E-03
19  7 9.21648636E-04 7.63297165E-04-4.62793386E-04-3.70073424E-04-2.09357144E-03
19  8-2.63221210E-03 3.49453767E-03 4.09727037E-02-3.18169790E-03-1.48171890E-03
19  9-1.62411087E-03-7.14040847E-03-2.07503256E-01-1.38010043E-01-1.26035318E-01
19 10 2.85645946E-03 4.50572570E-03-1.18960636E-02 1.39038055E-04-3.15560563E-03
19 11 1.22612068E-02-3.90300279E-04-1.49555896E-04-5.81161246E-04-3.37664517E-04
19 12-4.16465916E-04 6.01597248E-04-1.61043811E-04-4.14209405E-04 5.85880921E-05
20  1 3.01556998E-03-3.58207163E-03 8.78780492E-03-2.60563620E-02 1.12294946E-02
20  2 5.77819804E-04 1.19952157E-01-3.66343009E-01 2.35737532E-02-2.07716424E-02
20  3-5.82977287E-02-1.20029950E-01 1.43677374E-02-1.13283560E-01-3.85969503E-02
20  4 6.05262878E-02-1.91938959E-02-1.08079388E-02 1.23283081E-02 8.30804251E-01
20  5 2.88354699E-01 3.94138541E-02-6.68490535E-02-1.53150122E-01 4.23411521E-03
20  6 1.06462670E-01 4.70898852E-02-5.65254559E-02-7.46494731E-02 7.72632134E-02
20  7 4.20875291E-04 4.43769356E-04-1.84608879E-04-2.55201975E-03-5.10425187E-03
20  8-1.11991107E-03-8.36168919E-03-4.81075092E-03 4.10095114E-04-5.07060935E-03
20  9-2.31442431E-03 3.14103046E-03-1.37952716E-01-2.28526913E-01-1.48535790E-01
20 10-4.69333301E-03-6.73083001E-03 2.01829645E-02 6.23676353E-04-4.69491887E-03
20 11 2.11893423E-02 2.41155448E-03-7.64040304E-05-1.00639395E-03 4.82072619E-03
20 12 2.55512963E-03-1.29050953E-02-1.31034782E-04 2.96197096E-03-4.23384705E-03
21  1-4.61414872E-03 9.49854737E-03-1.25823069E-02-1.58137918E-02-4.07733993E-03
21  2 1.15661839E-02-4.40245005E-02-1.21981472E-01-9.71603736E-02 3.04308301E-02
21  3-2.79509755E-03 1.09468759E-01-1.49612714E-02-8.13033540E-03-6.96946235E-02
21  4 2.00624518E-02-1.81331118E-02 1.11166426E-02 1.58207239E-01 2.88354699E-01
21  5 2.40466318E-01-5.57560680E-02 3.84195836E-02 1.37598844E-01-6.35372568E-03
21  6-1.32637791E-01-7.65315912E-02 5.73608820E-02 6.87404730E-02-7.56239615E-02
21  7 5.83530839E-04-7.72449632E-06-5.30304242E-04-1.30881252E-03-3.44296563E-03
21  8 2.26660079E-03-2.30616362E-03 7.99293789E-03 6.01354806E-03-3.32168657E-03
21  9-3.25627344E-03-4.17080463E-03-1.22039291E-01-1.29646629E-01-1.54739421E-01
21 10 7.29214548E-03 1.01937006E-02-2.97312658E-02-1.43322233E-03 1.42771093E-03
21 11-1.27413339E-02 1.19460342E-04 9.60366795E-04 2.98844995E-04-2.49009173E-03
21 12-1.31175669E-03 1.09650202E-02 3.66233449E-04-1.67522119E-04 3.74522527E-03
22  1 4.20888295E-03-5.23511007E-04-4.40993653E-03 8.30973783E-04 2.55674054E-03
22  2-3.30157564E-03-5.60407729E-03-4.96056946E-02-8.84523936E-03 4.39242226E-03
22  3 5.35104842E-03 5.22309197E-02-9.90782468E-03 1.20946859E-03 2.56962831E-02
22  4-9.31149133E-04-1.43368816E-03-2.65464434E-03-3.98226260E-02 3.94138541E-02
22  5-5.57560680E-02 8.74606965E-01-6.07251694E-03 1.08290048E-01-2.06992720E-01
22  6 4.67354530E-02 2.90406738E-02 4.63105176E-02 9.98322968E-03-4.88719197E-02
22  7 6.88716549E-05-2.65714572E-04 4.14472059E-04-3.45842921E-05-3.94263832E-04
22  8 1.16848665E-03-1.07384585E-03-9.57186699E-06 9.12083116E-04 7.70932667E-04
22  9 2.49398693E-04-2.38558934E-03 1.22651736E-03 9.06835036E-04-5.65100706E-03
22 10-4.17459317E-01 1.09634666E-01-9.66531699E-02-2.43426493E-01-1.89105240E-01
22 11-2.26790006E-02-3.86465584E-03 3.67734915E-02 2.41653486E-02 3.11096815E-04
22 12 1.89957528E-04 5.17649611E-03-3.60988740E-03-5.59394199E-03 4.11333953E-03
23  1-9.45646857E-04 2.48756621E-04 5.17114914E-03 4.14824430E-04-1.71451481E-03
23  2 5.80643057E-04 8.95580911E-04 2.25682027E-02 1.27984782E-02-2.70717797E-03
23  3-1.23719274E-02-4.50940194E-02-3.87986630E-03 1.65553815E-03-3.22418084E-03
23  4 3.21891955E-03-1.53073504E-03-2.86871196E-04-5.90256227E-03-6.68490535E-02
23  5 3.84195836E-02-6.07251694E-03 9.03293229E-01 1.26038172E-01 1.24764869E-01
23  6-3.49077757E-01-1.41488397E-01-1.40848282E-02-6.66119334E-02 1.50315131E-02
23  7 1.02019675E-04 1.27011193E-04-2.17746273E-04 4.41257771E-04 6.62210126E-04
23  8-6.34890559E-04 2.06289373E-03-5.73664050E-04 1.30458327E-03-7.36098782E-04
23  9 1.15032057E-03 3.64115367E-03 3.27295640E-03 2.90819887E-03-9.96773457E-03
23 10 9.90015588E-02-1.18088420E-01 2.97933900E-02-1.90371859E-01-3.11588861E-01
23 11-1.84279913E-02-5.73746551E-03-1.97580215E-03-7.51114323E-03 4.42144916E-04
23 12 1.37079016E-03-2.62480465E-03-4.17900363E-03-3.60158908E-03-3.30088720E-03
24  1-3.44570854E-03-3.79831892E-03 1.02110720E-02 2.88861785E-04-2.63589883E-03
24  2 3.61257647E-03 2.52327770E-02 1.81886390E-01 1.27673953E-02-2.10028348E-02
24  3-2.93553848E-02-1.53202613E-01 2.37566717E-02-4.74054091E-03-3.32228646E-02
24  4-1.28948531E-03 5.60379133E-03 4.25154786E-03-2.13323590E-02-1.53150122E-01
24  5 1.37598844E-01 1.08290048E-01 1.26038172E-01 1.14454233E-01 6.90358066E-02
24  6-8.85832408E-04-7.83307672E-02-8.05318430E-02-1.04932170E-01 1.03763088E-01
24  7-1.74922108E-04 6.75499106E-04-1.21343021E-03-9.00384279E-06 3.89396341E-04
24  8-1.62333685E-03 1.59926469E-03-1.04598147E-03-6.69464575E-04-3.80399072E-03
24  9-1.03425772E-03 8.69587557E-03 8.02236749E-03 8.71935991E-03-2.08311733E-02
24 10-8.29505217E-02 7.47123895E-03-4.42121150E-02-2.52257219E-02-3.74766928E-02
24 11-4.52895371E-02-4.22856081E-03 2.86207000E-03 2.71251234E-03 7.16694608E-03
24 12 4.47127757E-03-2.09798198E-02 6.02208545E-04 9.38004638E-04 1.50797675E-03
25  1 9.67406250E-04 2.61854973E-04-3.14006218E-03 1.51326997E-04 5.46210248E-04
25  2 8.96895539E-06 1.29035873E-03-1.95875583E-02-1.19898475E-02 2.97703893E-04
25  3 3.96564628E-03 4.80559104E-02-8.77902322E-04 9.95496349E-04 1.74072190E-04
25  4-1.56358705E-04-2.64756762E-04 2.93421656E-04 5.53154463E-04 4.23411521E-03
25  5-6.35372568E-03-2.06992720E-01 1.24764869E-01 6.90358066E-02 9.20734531E-01
25  6-2.39430182E-03-6.25856579E-02-2.69839420E-01-1.61743461E-01-4.74114443E-02
25  7 1.12487920E-04-4.06525799E-05 1.92664173E-04-6.41997149E-05-1.86763849E-04
25  8 3.19050796E-04-1.16619414E-03 3.97336997E-04-2.84169172E-04 1.18825599E-03
25  9-5.19351894E-05-3.63261624E-03 3.85289259E-04 8.26182064E-04-4.48855908E-04
25 10-4.82883270E-03 3.30799967E-02 2.66952704E-02 1.54091508E-02-2.36335106E-02
25 11-1.77984345E-02-4.56155749E-01 5.94302092E-02-6.26595247E-03-1.69016393E-02
25 12-3.93917935E-02 1.35372519E-02 1.58933508E-02 1.87928159E-02 1.59834883E-03
26  1 1.05895522E-02 5.36016087E-04-1.14617872E-02-1.30706759E-03 5.13320060E-03
26  2-2.41804944E-03-3.23753667E-02-1.34742598E-01-3.07241805E-02-1.00381551E-04
26  3 1.14205079E-02 1.89995281E-01-3.59263092E-03 1.00865176E-04 1.25364918E-02
26  4-1.76131044E-03 5.89528430E-04-2.00017021E-03 9.97264243E-03 1.06462670E-01
26  5-1.32637791E-01 4.67354530E-02-3.49077757E-01-8.85832408E-04-2.39430182E-03
26  6 7.37412902E-01 1.54841063E-01-7.60052890E-02-2.69923276E-01-1.55737661E-01
26  7 2.18022707E-04-5.53090514E-04 7.13074656E-04-2.41218059E-04-9.11557054E-04
26  8 1.82049163E-03-5.12670814E-04 6.46664177E-04-7.35762282E-04 3.34476042E-03
26  9 1.44958712E-03-9.46523238E-03-3.07517455E-03-2.40790288E-03 7.26158740E-03
26 10 5.99259727E-03 5.42670335E-03-2.87197654E-02 1.69132900E-02-1.25703219E-02
26 11-2.70632204E-02 5.28281357E-02-8.64906275E-02-6.91483951E-03 1.37459087E-04
26 12 7.25524805E-03 2.71550780E-02-2.53665013E-02-1.97567616E-02 1.44412236E-02
27  1 6.28649552E-04 8.34423341E-04-1.54303870E-03 4.38921908E-04 6.57623950E-04
27  2-5.43401720E-04 1.45935687E-02-3.36899717E-02-4.89708986E-02 6.54833050E-03
27  3 1.01036172E-02 1.97547518E-02-3.60085372E-03 3.72926582E-04 5.27243394E-03
27  4 6.62287499E-04-7.97318629E-04-1.10380578E-03 1.09368228E-02 4.70898852E-02
27  5-7.65315912E-02 2.90406738E-02-1.41488397E-01-7.83307672E-02-6.25856579E-02
27  6 1.54841063E-01 3.13899169E-01 4.42277417E-03-1.57705075E-02-9.54934885E-02
27  7 5.50320495E-04-1.92380257E-04 2.08196640E-04-4.27638639E-05-8.05483785E-05
27  8 1.40881164E-04 1.87109403E-03-1.69729463E-03 4.49063260E-03 1.43842894E-03
27  9 6.93269124E-04-2.35331147E-03-8.35319117E-04-1.46767284E-03 2.60634673E-03
27 10-1.65819542E-03 1.27431796E-02-2.89435746E-03 2.28722541E-03 5.55597040E-03
27 11-1.52917804E-03 1.52852253E-02-1.16793074E-02-4.97921192E-02-7.27744393E-03
27 12-1.00667071E-02 7.22198778E-03-1.27040892E-02-1.59618536E-02 5.49155846E-03
28  1-1.55752485E-02-1.72851527E-03 2.67290066E-02 5.98447906E-04-3.34158478E-03
28  2 1.36974112E-03 1.85903046E-02 6.84401781E-02 3.20306023E-02-4.25141773E-02
28  3-7.98589291E-03-1.12806311E-01-1.87486686E-03 5.64253000E-04-6.72666559E-03
28  4 1.43145509E-03-2.46619303E-04 1.04989262E-03-6.14054102E-05-5.65254559E-02
28  5 5.73608820E-02 4.63105176E-02-1.40848282E-02-8.05318430E-02-2.69839420E-01
28  6-7.60052890E-02 4.42277417E-03 8.52477474E-01-6.10912976E-02 1.47966501E-01
28  7-1.87057312E-04 3.74823505E-04-1.14267065E-03 7.18271836E-04 8.11725716E-04
28  8-1.88986267E-03-1.47102682E-03 2.20468704E-04-2.16246095E-05-1.24273670E-03
28  9 4.16127152E-04 4.35964425E-03 1.60240070E-03 1.58832345E-03-2.72633729E-03
28 10-6.89781074E-04-3.74857026E-03 6.64992794E-03-1.01319806E-03 1.31287547E-03
28 11 7.66284016E-03-1.32490594E-02-4.07692879E-02 2.05790701E-04-4.24138823E-01
28 12 5.69012179E-02-1.36204431E-01-1.49872071E-01 1.34897348E-01 5.22421421E-02
29  1-9.63874091E-03 2.14840461E-03 8.36099512E-03 2.02923272E-03-5.22695029E-03
29  2 7.80481782E-04 2.19853966E-02 8.63050876E-02 4.68134918E-02 2.99139604E-03
29  3-5.81039831E-02-1.43219203E-01 3.04086363E-05 1.67366003E-03-9.09596237E-03
29  4 1.20163520E-03-8.67294400E-04 1.71278000E-03-1.96026943E-03-7.46494731E-02
29  5 6.87404730E-02 9.98322968E-03-6.66119334E-02-1.04932170E-01-1.61743461E-01
29  6-2.69923276E-01-1.57705075E-02-6.10912976E-02 8.10880268E-01 2.78479637E-01
29  7-2.11413399E-04 4.63253913E-04-3.83258933E-04 1.83272828E-05 7.74237097E-04
29  8-1.38975145E-03-1.93059234E-03 8.32982838E-04-1.70811887E-03-8.20454525E-03
29  9-3.93483578E-03 2.46275393E-02 2.44636641E-03 2.81236020E-03-4.27812393E-03