!File created by the GAMESS Input Deck Generator Plugin for Avogadro
 $BASIS GBASIS=STO NGAUSS=3 $END
 $CONTRL SCFTYP=RHF RUNTYP=SADPOINT NZVAR=1 mult=1  ICHARG=0 $END
 $STATPT hssend=.t. OPTTOL=0.0005 NSTEP=50 $END
 $STATPT HESS=calc ihrep=5 $END
 $FORCE nvib=2 $END
 $ZMAT DLC=.t. auto=.t. nonvdw(1)=4,10,7,8,4,3,3,7,8,9,9,10 $END
!$ZMAT IFZMAT(1)=1,4,10,1,7,8 fvalue(1)=2.00,2.00 $END

 $DATA 
Title
C1
C     6.0     0.90914845     0.92890561     0.38239190
C     6.0     1.38525856    -0.24328940     0.01396189
C     6.0    -1.35134995     0.35410091    -0.39008611
C     6.0    -0.56881034     1.22233725     0.38373062
C     6.0     0.46027294    -1.36193693    -0.40720156
O     8.0     0.86095500    -2.45892119    -0.77299923
C     6.0    -1.03144944    -1.00830734    -0.33049718
C     6.0    -1.35477376    -1.53713858     1.57102823
C     6.0    -1.81529140    -0.38461587     2.21922779
C     6.0    -0.99731362     0.74888027     2.27904677
H     1.0     1.56949687     1.72956455     0.69731206
H     1.0     2.44695163    -0.44971308    -0.01918874
H     1.0    -2.36068368     0.64746583    -0.65165722
H     1.0    -0.81741858     2.27908492     0.37192616
H     1.0    -1.66432703    -1.70287943    -0.87532914
H     1.0    -0.34141588    -1.85722065     1.78270710
H     1.0    -2.04127550    -2.37000775     1.46277988
H     1.0    -2.88689065    -0.22286396     2.23561954
H     1.0     0.03575265     0.60928863     2.57293820
H     1.0    -1.42741382     1.66101432     2.67948461
 $END
