!File created by the GAMESS Input Deck Generator Plugin for Avogadro
 $BASIS GBASIS=STO NGAUSS=3 $END
 $CONTRL SCFTYP=RHF RUNTYP=SADPOINT NZVAR=1 mult=1  ICHARG=0 $END
 $STATPT hssend=.t. OPTTOL=0.0005 NSTEP=50 $END
 $STATPT HESS=calc ihrep=5 $END
 $FORCE nvib=2 $END
 $ZMAT DLC=.t. auto=.t. nonvdw(1)=4,10,7,8 $END
 $ZMAT IFZMAT(1)=1,4,10,1,7,8 fvalue(1)=2.00,2.00 $END

 $DATA 
Title
C1
C     6.0     0.91514     0.99101     0.23431
C     6.0     1.41730    -0.19367    -0.14280
C     6.0    -1.34604     0.42861    -0.32826
C     6.0    -0.53519     1.22368     0.41989
C     6.0     0.48313    -1.32239    -0.39007
O     8.0     0.93405    -2.44767    -0.59518
C     6.0    -1.00806    -1.03640    -0.33234
C     6.0    -1.55759    -1.63140     1.49450
C     6.0    -1.85226    -0.37054     2.26176
C     6.0    -0.94098     0.63517     2.29058
H     1.0     1.57250     1.83802     0.41175
H     1.0     2.47457    -0.38011    -0.27279
H     1.0    -2.36989     0.72446    -0.53518
H     1.0    -0.82626     2.27039     0.56459
H     1.0    -1.58125    -1.64404    -1.03588
H     1.0    -0.73317    -2.23354     1.88284
H     1.0    -2.45839    -2.22015     1.30059
H     1.0    -2.89184    -0.16460     2.50394
H     1.0     0.10581     0.32402     2.38049
H     1.0    -1.22209     1.56959     2.78257
 $END
