!File created by the GAMESS Input Deck Generator Plugin for Avogadro
 $BASIS GBASIS=STO NGAUSS=3 $END
 $CONTRL SCFTYP=RHF RUNTYP=SADPOINT NZVAR=1 mult=1  ICHARG=0 $END
 $STATPT hssend=.t. OPTTOL=0.0005 NSTEP=50 $END
 $STATPT HESS=calc ihrep=5 $END
 $FORCE nvib=2 $END
 $ZMAT DLC=.t. auto=.t. nonvdw(1)=4,10,7,8,4,3,3,7,8,9,9,10 $END
!$ZMAT IFZMAT(1)=1,4,10,1,7,8 fvalue(1)=2.00,2.00 $END

 $DATA 
Title
C1
C     6.0     0.90799892     0.92424887     0.39297861
C     6.0     1.38511527    -0.24338725     0.01537075
C     6.0    -1.34842420     0.34934235    -0.38802248
C     6.0    -0.57723820     1.21185660     0.41440514
C     6.0     0.45906082    -1.36468160    -0.39943796
O     8.0     0.85787338    -2.45531487    -0.78257829
C     6.0    -1.03785598    -1.01828885    -0.29508957
C     6.0    -1.34683597    -1.52591980     1.54010093
C     6.0    -1.80875123    -0.38341326     2.21478677
C     6.0    -0.99455434     0.76268345     2.24325204
H     1.0     1.56704354     1.72791040     0.70315182
H     1.0     2.44710398    -0.44552559    -0.03130915
H     1.0    -2.35439372     0.64419490    -0.66051263
H     1.0    -0.81715685     2.27076745     0.38121381
H     1.0    -1.66435134    -1.71013212    -0.85155272
H     1.0    -0.33742237    -1.84991753     1.76664519
H     1.0    -2.03124738    -2.36296415     1.44907224
H     1.0    -2.88099146    -0.22606085     2.23684144
H     1.0     0.03208083     0.62798810     2.56321168
H     1.0    -1.43260217     1.66757762     2.65251470
 $END
